NAME : instances/diverse-tsp/instance-31.tsp
COMMENT : No Comment
TYPE : TSP
DIMENSION: 47
EDGE_WEIGHT_TYPE : EUC_2D
NODE_COORD_SECTION
1 1463 1828 
2 804 170 
3 98 189 
4 623 867 
5 190 1716 
6 485 1433 
7 1262 76 
8 421 1633 
9 721 208 
10 965 1636 
11 937 769 
12 151 1898 
13 1978 576 
14 787 1722 
15 1485 1753 
16 1306 197 
17 340 1286 
18 899 477 
19 1599 1204 
20 496 185 
21 427 1290 
22 861 1661 
23 1219 640 
24 99 842 
25 801 1755 
26 293 51 
27 1461 1994 
28 568 98 
29 1219 1190 
30 530 767 
31 1421 478 
32 1199 1715 
33 347 585 
34 427 397 
35 388 1959 
36 131 1593 
37 1052 1758 
38 816 1279 
39 1356 1774 
40 1310 457 
41 299 9 
42 645 685 
43 1313 1231 
44 1148 1230 
45 1740 1802 
46 1076 687 
47 1350 1807 
EOF
